(declare-const a Real)
(declare-const b Real)
(declare-const c Real)
(assert (= (+ a b c) 3))
(assert (> a 0))
(assert (> b 0))
(assert (> c 0))
(assert (not (<= (+ (/ 9 4) (* (pow (+ (* 9 (pow (+ a b c) 2)) (* 162 (pow a 2)) (* 27 a (+ a b c))) -1) (+ (* -162 (pow a 2)) (* -9 (pow (+ a b c) 2)))) (* (pow (+ (* 9 (pow (+ a b c) 2)) (* 162 (pow b 2)) (* 27 b (+ a b c))) -1) (+ (* -162 (pow b 2)) (* -9 (pow (+ a b c) 2)))) (* (pow (+ (/ 81 2) (* (/ 1 2) (pow (+ a b c) 4)) (* 162 (pow c 2)) (* 27 c (+ a b c))) -1) (+ (* -162 (pow c 2)) (* -9 (pow (+ a b c) 2))))) 0)))
(check-sat)
(get-model)
(exit)